SECTION Graph
Nodes 833
Edges 1595
E 1 688 6
E 1 702 2
E 1 713 5
E 1 724 10
E 2 717 6
E 2 724 2
E 3 608 6
E 3 629 2
E 3 658 5
E 3 679 10
E 4 664 6
E 4 679 2
E 4 700 5
E 5 541 2
E 5 546 1
E 5 564 2
E 5 609 10
E 6 8 3
E 6 604 2
E 6 622 1
E 7 484 8
E 7 513 2
E 7 546 3
E 7 589 10
E 8 553 8
E 8 589 2
E 9 11 10
E 9 391 2
E 9 430 6
E 9 456 10
E 10 466 1
E 10 506 6
E 11 39 5
E 11 332 2
E 11 400 10
E 12 400 1
E 12 466 10
E 13 14 1
E 13 44 3
E 13 722 3
E 13 726 2
E 14 45 3
E 14 725 1
E 14 729 2
E 15 732 10
E 15 739 1
E 16 48 3
E 16 702 5
E 16 713 2
E 16 722 4
E 17 18 10
E 17 713 4
E 17 722 2
E 17 726 3
E 18 733 4
E 18 738 3
E 19 20 1
E 19 50 3
E 19 670 3
E 19 683 2
E 20 51 3
E 20 682 1
E 20 685 2
E 21 688 10
E 21 708 1
E 21 717 2
E 21 724 6
E 22 54 3
E 22 629 5
E 22 658 2
E 22 670 4
E 23 24 10
E 23 658 4
E 23 670 2
E 23 683 3
E 24 693 4
E 24 705 2
E 24 706 3
E 25 26 1
E 25 56 3
E 25 571 3
E 25 600 2
E 26 57 3
E 26 599 1
E 26 603 2
E 27 608 10
E 27 649 1
E 27 664 2
E 27 679 6
E 28 29 2
E 28 59 3
E 28 541 2
E 28 564 2
E 29 60 3
E 29 571 1
E 29 577 2
E 30 583 10
E 30 630 1
E 30 641 2
E 30 646 3
E 31 32 1
E 31 62 3
E 31 436 3
E 31 473 2
E 32 63 3
E 32 472 1
E 32 480 2
E 33 484 10
E 33 534 1
E 33 553 2
E 33 589 8
E 34 35 2
E 34 65 3
E 34 391 6
E 34 430 2
E 35 66 3
E 35 436 1
E 35 442 2
E 36 450 10
E 36 505 1
E 36 514 1
E 36 527 3
E 37 42 8
E 37 84 7
E 37 245 1
E 38 245 10
E 38 333 9
E 39 40 5
E 39 309 2
E 39 380 10
E 40 41 1
E 40 80 7
E 40 349 10
E 41 42 1
E 41 81 7
E 41 342 10
E 42 82 7
E 42 333 10
E 43 695 1
E 43 696 1
E 43 721 10
E 44 45 1
E 44 710 3
E 44 712 2
E 45 716 2
E 45 723 1
E 46 47 10
E 46 673 4
E 46 681 1
E 46 691 3
E 47 701 4
E 47 710 2
E 47 712 3
E 48 701 2
E 48 703 1
E 48 710 4
E 49 619 1
E 49 620 1
E 49 648 6
E 49 669 10
E 50 51 1
E 50 653 3
E 50 657 2
E 51 663 2
E 51 677 1
E 52 53 10
E 52 576 4
E 52 594 1
E 52 614 3
E 53 628 4
E 53 653 2
E 53 657 3
E 54 615 5
E 54 628 2
E 54 653 4
E 55 502 1
E 55 503 1
E 55 545 6
E 55 570 10
E 56 57 1
E 56 552 3
E 56 555 2
E 57 563 2
E 57 582 1
E 58 478 1
E 58 479 1
E 58 497 3
E 58 540 10
E 59 60 2
E 59 521 2
E 59 522 2
E 60 532 2
E 60 552 1
E 61 383 1
E 61 384 1
E 61 424 8
E 61 435 10
E 62 63 1
E 62 420 3
E 62 425 2
E 63 429 2
E 63 449 1
E 64 353 1
E 64 354 1
E 64 378 3
E 64 409 10
E 65 66 2
E 65 379 6
E 65 395 2
E 66 404 2
E 66 420 1
E 67 86 5
E 67 612 6
E 67 645 1
E 67 656 4
E 68 648 10
E 68 669 6
E 68 692 2
E 68 699 4
E 69 88 5
E 69 495 6
E 69 539 1
E 69 561 5
E 70 545 10
E 70 570 6
E 70 615 2
E 70 628 5
E 71 73 3
E 71 90 5
E 71 433 1
E 71 434 1
E 72 448 10
E 72 504 1
E 72 521 2
E 72 522 2
E 73 92 5
E 73 376 8
E 73 419 1
E 74 424 10
E 74 435 8
E 74 498 2
E 74 504 3
E 75 94 5
E 75 253 10
E 75 301 1
E 75 324 6
E 76 78 10
E 76 308 10
E 76 379 2
E 76 395 6
E 77 237 5
E 77 253 1
E 77 263 1
E 77 301 10
E 78 79 5
E 78 263 10
E 78 317 2
E 79 80 5
E 79 240 10
E 79 289 2
E 80 81 1
E 80 220 10
E 81 82 1
E 81 215 10
E 82 84 8
E 82 211 10
E 83 122 9
E 83 185 1
E 83 216 10
E 84 185 10
E 84 216 1
E 85 530 3
E 85 537 2
E 85 559 2
E 85 586 6
E 86 601 3
E 86 611 1
E 86 638 4
E 87 397 6
E 87 415 2
E 87 452 4
E 87 488 10
E 88 469 6
E 88 494 1
E 88 526 4
E 89 328 2
E 89 336 1
E 89 358 2
E 89 398 10
E 90 92 3
E 90 399 1
E 90 407 1
E 91 311 2
E 91 312 2
E 91 336 3
E 91 382 10
E 92 375 3
E 92 385 1
E 93 95 10
E 93 239 4
E 93 265 10
E 94 232 10
E 94 268 1
E 94 294 5
E 95 123 5
E 95 223 10
E 96 201 5
E 96 223 1
E 96 232 1
E 96 268 10
E 97 98 1
E 97 584 4
E 97 592 3
E 97 617 2
E 98 591 4
E 98 616 1
E 98 623 2
E 99 650 4
E 99 665 1
E 99 675 1
E 100 543 4
E 100 558 1
E 100 572 1
E 100 579 2
E 101 585 3
E 101 592 2
E 101 617 3
E 101 632 6
E 102 632 4
E 102 633 4
E 102 651 1
E 102 660 3
E 103 104 1
E 103 468 4
E 103 477 3
E 103 501 2
E 104 476 4
E 104 500 1
E 104 509 2
E 105 550 4
E 105 567 1
E 105 580 1
E 105 593 3
E 106 421 4
E 106 438 1
E 106 460 2
E 106 477 4
E 107 460 4
E 107 477 2
E 107 501 3
E 107 518 6
E 108 518 4
E 108 519 4
E 108 551 1
E 108 560 3
E 109 110 1
E 109 357 4
E 109 368 2
E 109 389 2
E 110 361 4
E 110 388 1
E 110 393 2
E 111 397 10
E 111 445 1
E 111 461 1
E 111 488 6
E 112 318 4
E 112 328 2
E 112 351 1
E 112 358 2
E 113 327 4
E 113 351 1
E 113 362 1
E 113 369 2
E 114 373 10
E 114 416 1
E 114 426 1
E 114 427 1
E 115 116 1
E 115 247 4
E 115 251 3
E 115 271 2
E 116 141 4
E 116 270 1
E 116 275 2
E 117 279 10
E 117 322 1
E 117 337 1
E 117 344 2
E 118 222 4
E 118 236 1
E 118 243 1
E 118 248 2
E 119 231 4
E 119 243 1
E 119 251 1
E 119 258 2
E 120 262 10
E 120 298 1
E 120 313 1
E 120 319 3
E 121 126 8
E 121 176 10
E 122 176 1
E 123 124 5
E 123 197 10
E 124 125 1
E 124 186 10
E 125 126 1
E 125 183 10
E 126 182 10
E 127 128 10
E 127 145 7
E 127 730 3
E 127 734 3
E 128 146 7
E 128 743 3
E 128 748 18
E 129 736 10
E 129 743 1
E 129 750 17
E 130 131 10
E 130 149 9
E 130 680 3
E 130 697 3
E 131 150 9
E 131 719 3
E 131 737 18
E 132 694 12
E 132 719 1
E 132 731 6
E 132 740 17
E 133 134 10
E 133 528 8
E 133 556 3
E 133 595 3
E 134 590 8
E 134 636 1
E 134 643 3
E 135 636 3
E 135 643 1
E 135 674 6
E 135 704 17
E 136 137 10
E 136 410 3
E 136 443 3
E 137 475 3
E 137 492 1
E 137 508 3
E 138 492 3
E 138 508 1
E 138 524 2
E 138 537 4
E 139 140 1
E 139 199 1
E 140 204 1
E 140 217 3
E 141 246 1
E 141 247 1
E 141 257 1
E 142 260 1
E 142 261 1
E 142 273 3
E 142 278 4
E 143 730 9
E 143 741 3
E 144 741 10
E 144 743 6
E 144 752 18
E 145 146 10
E 145 707 7
E 145 718 3
E 146 148 7
E 146 736 1
E 147 680 9
E 147 707 3
E 147 718 7
E 148 707 10
E 148 719 6
E 148 731 1
E 149 150 10
E 149 625 7
E 149 642 3
E 150 152 7
E 150 694 1
E 151 556 9
E 151 625 3
E 151 642 7
E 152 625 10
E 152 643 6
E 152 674 1
E 153 154 10
E 153 507 3
E 153 516 1
E 153 528 1
E 154 578 1
E 154 590 1
E 154 591 1
E 155 457 1
E 155 485 3
E 155 507 7
E 156 485 10
E 156 535 1
E 156 548 1
E 156 557 3
E 157 355 20
E 157 451 2
E 157 458 3
E 158 458 10
E 158 508 2
E 158 524 1
E 158 529 2
E 159 160 10
E 159 334 4
E 159 355 1
E 159 366 1
E 160 392 4
E 160 413 1
E 160 414 1
E 161 269 2
E 161 280 1
E 161 355 14
E 162 280 10
E 162 326 1
E 162 343 1
E 162 350 2
E 163 164 10
E 163 165 1
E 163 269 1
E 163 276 1
E 164 166 1
E 164 326 1
E 164 327 1
E 165 166 10
E 165 266 1
E 165 267 1
E 166 315 1
E 166 320 1
E 167 217 1
E 167 224 1
E 168 229 10
E 168 260 3
E 168 272 1
E 168 273 1
E 169 170 10
E 169 171 1
E 169 180 2
E 169 189 1
E 170 172 1
E 170 226 1
E 170 227 1
E 171 172 10
E 171 178 2
E 171 181 1
E 172 174 1
E 172 222 1
E 173 177 1
E 173 179 2
E 174 181 10
E 174 207 1
E 174 219 1
E 175 573 6
E 175 597 2
E 175 610 1
E 175 627 4
E 176 182 8
E 176 185 9
E 177 178 1
E 177 181 2
E 178 180 1
E 179 181 1
E 179 207 10
E 180 194 6
E 182 183 1
E 182 184 1
E 183 186 1
E 183 187 1
E 184 187 1
E 184 188 1
E 185 211 8
E 186 190 1
E 186 197 5
E 187 190 1
E 187 191 1
E 188 191 1
E 188 198 5
E 189 192 1
E 189 226 10
E 190 193 1
E 190 201 5
E 191 193 1
E 191 202 5
E 192 196 3
E 192 230 10
E 193 208 5
E 193 209 5
E 194 195 1
E 194 200 2
E 195 199 1
E 195 206 2
E 196 200 1
E 196 242 10
E 197 201 1
E 197 223 5
E 198 202 1
E 198 203 1
E 199 204 1
E 199 205 1
E 200 206 1
E 200 246 10
E 201 208 1
E 202 209 1
E 202 210 1
E 203 210 1
E 203 211 1
E 204 212 1
E 204 221 3
E 205 212 1
E 205 213 1
E 206 213 1
E 206 250 10
E 207 239 7
E 208 232 5
E 208 233 5
E 209 214 1
E 209 233 5
E 210 214 1
E 210 215 1
E 211 215 1
E 212 218 1
E 212 225 3
E 213 218 1
E 213 256 10
E 214 220 1
E 214 237 5
E 215 220 1
E 216 245 7
E 217 221 1
E 218 229 3
E 218 260 10
E 219 222 1
E 219 236 4
E 220 240 5
E 221 224 1
E 221 225 1
E 222 227 1
E 223 265 10
E 224 228 1
E 225 228 1
E 225 229 1
E 226 230 1
E 226 231 1
E 227 231 1
E 227 243 4
E 228 234 1
E 228 238 2
E 229 234 1
E 230 235 1
E 230 242 3
E 231 235 1
E 232 253 5
E 233 237 1
E 233 253 5
E 234 241 2
E 234 272 10
E 235 247 3
E 235 251 4
E 236 244 2
E 237 240 1
E 238 241 1
E 238 249 3
E 239 244 1
E 239 284 11
E 240 263 5
E 241 255 3
E 241 281 10
E 242 246 1
E 242 247 1
E 243 252 2
E 244 248 1
E 244 283 10
E 246 250 1
E 248 252 1
E 248 287 10
E 249 254 1
E 249 255 1
E 250 256 1
E 250 257 1
E 251 262 2
E 252 258 1
E 252 292 10
E 254 259 1
E 254 264 2
E 255 259 1
E 255 296 10
E 256 260 1
E 256 261 1
E 257 261 1
E 257 270 4
E 258 262 1
E 258 298 10
E 259 267 2
E 259 303 10
E 261 274 4
E 262 271 3
E 263 308 10
E 264 266 1
E 264 267 1
E 265 268 1
E 265 283 5
E 266 269 1
E 267 315 10
E 268 284 4
E 270 274 1
E 270 279 2
E 271 275 1
E 271 319 10
E 272 277 1
E 272 281 2
E 273 277 1
E 273 291 4
E 274 278 1
E 274 282 2
E 275 279 1
E 275 322 10
E 276 280 1
E 276 326 10
E 277 285 2
E 277 297 4
E 278 286 2
E 278 291 3
E 279 282 1
E 280 290 2
E 281 285 1
E 281 296 3
E 282 286 1
E 282 345 11
E 283 287 1
E 283 288 1
E 284 288 1
E 285 304 3
E 285 311 4
E 286 305 3
E 286 344 10
E 287 292 1
E 287 293 1
E 288 293 1
E 288 294 1
E 289 309 3
E 289 317 5
E 290 295 1
E 290 350 10
E 291 297 1
E 291 305 2
E 292 298 1
E 292 299 1
E 293 299 1
E 293 300 1
E 294 300 1
E 294 325 6
E 295 302 1
E 295 356 10
E 296 303 1
E 296 304 1
E 297 311 2
E 297 312 2
E 298 306 1
E 299 306 1
E 299 307 1
E 300 307 1
E 300 324 5
E 301 308 1
E 301 325 5
E 302 334 6
E 302 360 10
E 303 310 1
E 303 315 2
E 304 310 1
E 304 321 4
E 305 312 1
E 305 364 10
E 306 313 1
E 306 314 1
E 307 314 1
E 307 340 6
E 308 341 6
E 309 332 5
E 310 318 2
E 310 328 4
E 311 321 3
E 312 374 11
E 313 316 1
E 313 323 3
E 314 316 1
E 314 339 5
E 315 318 1
E 316 330 3
E 316 347 5
E 317 332 3
E 317 379 10
E 318 320 1
E 319 322 1
E 319 323 1
E 320 327 1
E 320 351 4
E 321 328 1
E 321 336 2
E 322 329 1
E 323 329 1
E 323 330 1
E 324 331 1
E 324 339 2
E 325 331 1
E 326 335 1
E 327 335 1
E 329 337 1
E 329 338 1
E 330 338 1
E 330 365 5
E 331 340 1
E 331 341 1
E 332 391 10
E 333 342 1
E 334 392 10
E 335 343 1
E 335 362 4
E 336 394 10
E 337 345 1
E 337 346 1
E 338 346 1
E 338 371 5
E 339 347 1
E 339 348 1
E 340 348 1
E 341 354 2
E 341 395 10
E 342 349 1
E 343 357 2
E 343 368 4
E 344 352 1
E 344 364 3
E 345 352 1
E 345 386 7
E 346 359 2
E 346 376 5
E 347 353 1
E 347 365 3
E 348 353 1
E 348 354 1
E 349 380 5
E 350 356 1
E 350 357 1
E 351 363 2
E 352 359 1
E 352 370 3
E 353 372 3
E 354 404 10
E 356 360 1
E 356 361 1
E 357 361 1
E 358 363 1
E 358 406 10
E 359 375 3
E 359 390 6
E 360 367 1
E 360 392 6
E 361 367 1
E 362 368 1
E 362 373 2
E 363 369 1
E 363 411 10
E 364 370 1
E 364 382 3
E 365 371 1
E 365 372 1
E 366 387 4
E 366 413 10
E 367 388 4
E 367 396 6
E 368 381 2
E 369 373 1
E 369 416 10
E 370 374 1
E 370 375 1
E 371 376 1
E 371 377 1
E 372 377 1
E 372 378 1
E 373 381 1
E 374 385 2
E 374 408 7
E 375 403 6
E 376 383 1
E 377 383 1
E 377 384 1
E 378 384 1
E 378 425 10
E 379 391 3
E 380 400 5
E 381 389 2
E 381 426 10
E 382 385 1
E 382 394 3
E 383 386 1
E 384 429 10
E 385 399 3
E 386 390 1
E 387 401 3
E 387 437 10
E 388 397 2
E 388 415 6
E 389 393 1
E 389 439 10
E 390 403 3
E 392 396 1
E 393 397 1
E 393 445 10
E 394 398 1
E 394 399 1
E 395 404 2
E 396 414 4
E 396 415 4
E 398 402 1
E 398 406 2
E 399 402 1
E 400 456 10
E 401 405 1
E 401 459 10
E 402 407 1
E 402 412 2
E 403 408 1
E 404 409 1
E 405 410 1
E 405 467 10
E 406 411 1
E 406 412 1
E 407 418 2
E 407 433 5
E 408 419 2
E 409 420 2
E 409 425 3
E 410 475 10
E 411 416 1
E 411 417 1
E 412 417 1
E 412 418 1
E 413 421 1
E 413 437 4
E 414 421 1
E 414 438 4
E 415 438 4
E 416 422 1
E 417 422 1
E 417 423 1
E 418 423 1
E 418 447 5
E 419 424 1
E 419 434 3
E 420 436 3
E 421 444 4
E 422 427 1
E 422 428 1
E 423 428 1
E 424 441 3
E 425 429 1
E 426 431 1
E 426 439 2
E 427 431 1
E 427 432 1
E 428 432 1
E 428 463 5
E 429 435 1
E 430 442 2
E 430 491 10
E 431 446 2
E 432 454 3
E 432 470 5
E 433 440 1
E 433 447 2
E 434 440 1
E 434 441 1
E 435 449 2
E 436 450 2
E 437 444 1
E 437 459 3
E 438 452 2
E 439 445 1
E 439 446 1
E 440 448 1
E 440 455 2
E 441 448 1
E 441 504 10
E 442 450 1
E 442 505 10
E 443 458 2
E 443 508 10
E 444 468 3
E 444 477 4
E 445 453 1
E 446 453 1
E 446 454 1
E 447 455 1
E 447 463 2
E 448 465 2
E 449 472 3
E 449 498 8
E 450 473 3
E 451 457 1
E 451 474 3
E 452 460 1
E 452 487 6
E 453 461 1
E 453 462 1
E 454 462 1
E 454 486 5
E 455 464 1
E 455 465 1
E 456 466 1
E 456 491 6
E 457 481 3
E 458 474 2
E 459 467 1
E 459 468 1
E 460 493 6
E 461 469 1
E 461 494 6
E 462 469 1
E 462 489 5
E 463 470 1
E 463 471 1
E 464 471 1
E 465 479 2
E 465 521 10
E 466 514 9
E 467 475 1
E 467 476 1
E 468 476 1
E 469 495 5
E 470 478 1
E 470 486 3
E 471 478 1
E 471 479 1
E 472 484 2
E 472 513 8
E 473 480 1
E 473 527 10
E 474 481 1
E 474 529 10
E 475 482 1
E 476 482 1
E 478 483 1
E 479 532 10
E 480 484 1
E 480 534 10
E 481 485 1
E 481 535 10
E 482 492 3
E 482 500 4
E 483 490 2
E 485 499 3
E 486 489 1
E 486 490 1
E 487 493 1
E 487 511 4
E 488 494 1
E 488 511 4
E 489 495 1
E 489 496 1
E 490 496 1
E 490 497 1
E 491 505 2
E 491 506 2
E 492 517 4
E 493 518 4
E 493 519 4
E 494 520 4
E 495 502 1
E 496 502 1
E 496 503 1
E 497 503 1
E 497 555 10
E 498 512 3
E 498 513 3
E 499 516 3
E 499 557 10
E 500 510 2
E 500 517 3
E 501 509 1
E 501 538 6
E 502 539 6
E 503 563 10
E 504 512 2
E 505 515 2
E 506 515 2
E 507 556 9
E 509 510 1
E 509 544 6
E 510 530 3
E 510 550 6
E 511 519 1
E 511 520 1
E 512 522 1
E 512 533 3
E 513 533 3
E 514 523 1
E 515 523 1
E 516 578 10
E 517 530 2
E 517 537 3
E 518 538 3
E 519 525 1
E 520 525 1
E 520 526 1
E 521 532 2
E 522 541 3
E 523 542 3
E 524 536 2
E 524 549 4
E 525 531 1
E 525 551 4
E 526 531 1
E 527 534 1
E 527 542 2
E 528 590 10
E 529 535 1
E 529 536 1
E 530 566 6
E 531 554 4
E 531 561 5
E 532 540 1
E 533 541 1
E 533 546 2
E 534 547 2
E 535 543 1
E 536 543 1
E 536 558 4
E 537 549 2
E 538 544 1
E 538 560 4
E 539 545 1
E 539 562 4
E 540 552 2
E 540 555 3
E 542 547 1
E 543 548 1
E 544 550 1
E 544 567 4
E 545 576 5
E 546 604 10
E 547 553 1
E 548 565 3
E 548 572 4
E 549 558 2
E 549 559 2
E 550 566 3
E 551 554 1
E 551 568 3
E 552 571 3
E 554 575 3
E 554 588 5
E 555 563 1
E 557 565 1
E 557 578 3
E 558 573 2
E 559 573 2
E 559 597 6
E 560 567 1
E 560 568 1
E 561 569 1
E 561 588 4
E 562 569 1
E 563 570 1
E 564 577 2
E 564 621 10
E 565 584 3
E 565 592 4
E 566 586 3
E 566 593 4
E 567 574 1
E 568 574 1
E 568 575 1
E 569 576 1
E 569 594 4
E 570 582 2
E 571 583 2
E 572 585 2
E 572 592 3
E 573 579 1
E 574 580 1
E 574 581 1
E 575 581 1
E 575 602 5
E 576 628 10
E 577 583 1
E 577 630 10
E 578 584 1
E 579 585 1
E 579 610 6
E 580 587 1
E 580 598 3
E 581 587 1
E 581 606 5
E 582 599 3
E 582 615 6
E 583 600 3
E 584 591 1
E 585 618 6
E 586 597 2
E 586 605 4
E 587 601 3
E 587 612 5
E 588 594 1
E 588 602 3
E 589 604 3
E 590 596 1
E 591 596 1
E 593 598 1
E 593 605 3
E 594 607 3
E 595 625 6
E 595 643 10
E 596 616 4
E 596 636 8
E 598 601 1
E 598 611 3
E 599 608 2
E 599 629 6
E 600 603 1
E 600 646 10
E 602 606 1
E 602 607 1
E 603 608 1
E 603 649 10
E 604 609 1
E 605 611 1
E 605 627 4
E 606 612 1
E 606 613 1
E 607 613 1
E 607 614 1
E 609 621 2
E 609 622 2
E 610 618 1
E 610 633 4
E 611 624 2
E 612 619 1
E 613 619 1
E 613 620 1
E 614 620 1
E 614 657 10
E 615 629 3
E 616 626 2
E 617 623 1
E 617 644 6
E 618 632 3
E 619 635 3
E 620 663 10
E 621 630 2
E 621 631 2
E 622 631 2
E 623 626 1
E 623 647 6
E 624 634 2
E 626 650 6
E 627 633 1
E 627 634 1
E 630 639 2
E 631 639 2
E 632 644 3
E 633 637 1
E 634 637 1
E 634 638 1
E 635 645 3
E 636 698 17
E 637 640 1
E 637 651 4
E 638 640 1
E 638 656 5
E 639 641 1
E 640 655 4
E 640 661 5
E 641 654 3
E 642 680 9
E 644 647 1
E 644 660 4
E 645 648 1
E 645 652 2
E 646 649 1
E 646 654 2
E 647 650 1
E 647 665 4
E 648 668 4
E 649 659 2
E 651 655 1
E 651 666 3
E 652 662 2
E 653 670 3
E 654 659 1
E 655 672 3
E 655 678 5
E 656 661 1
E 656 662 1
E 657 663 1
E 658 693 10
E 659 664 1
E 660 665 1
E 660 666 1
E 661 667 1
E 661 678 4
E 662 667 1
E 662 668 1
E 663 669 1
E 665 671 1
E 666 671 1
E 666 672 1
E 667 673 1
E 667 681 4
E 668 673 1
E 668 699 10
E 669 677 2
E 671 675 1
E 671 676 1
E 672 676 1
E 672 684 5
E 673 701 10
E 674 694 7
E 674 715 17
E 675 689 6
E 675 698 8
E 676 686 5
E 677 682 3
E 677 692 6
E 678 681 1
E 678 684 3
E 679 693 5
E 681 687 3
E 682 688 2
E 682 702 6
E 683 685 1
E 683 706 10
E 684 686 1
E 684 687 1
E 685 688 1
E 685 708 10
E 686 689 1
E 686 690 1
E 687 690 1
E 687 691 1
E 689 695 1
E 690 695 1
E 690 696 1
E 691 696 1
E 691 712 10
E 692 702 3
E 692 703 4
E 693 700 2
E 694 727 17
E 695 709 8
E 696 716 10
E 697 707 6
E 697 719 10
E 698 704 3
E 698 709 7
E 699 701 1
E 699 703 2
E 700 705 4
E 704 715 6
E 704 720 7
E 705 711 3
E 706 708 1
E 706 711 2
E 708 714 2
E 709 720 3
E 710 722 3
E 711 714 1
E 712 716 1
E 713 733 10
E 714 717 1
E 715 727 7
E 715 728 7
E 716 721 1
E 718 730 7
E 720 728 6
E 721 723 2
E 723 725 3
E 724 733 5
E 725 732 2
E 726 729 1
E 726 738 10
E 727 735 7
E 727 737 9
E 728 735 7
E 729 732 1
E 729 739 10
E 731 736 7
E 731 744 17
E 734 741 6
E 734 743 10
E 735 742 9
E 736 746 17
E 737 740 3
E 737 742 7
E 738 739 1
E 740 744 6
E 740 745 7
E 742 745 3
E 744 746 7
E 744 747 7
E 745 747 6
E 746 748 7
E 746 749 7
E 747 749 7
E 748 750 3
E 748 751 7
E 749 751 7
E 750 752 6
E 750 753 7
E 751 753 3
E 752 754 7
E 753 754 6
E 1 755 100000
E 2 755 100000
E 3 756 100000
E 4 756 100000
E 5 757 100000
E 6 757 100000
E 7 758 100000
E 8 758 100000
E 9 759 100000
E 10 759 100000
E 11 760 100000
E 12 760 100000
E 13 761 100000
E 14 761 100000
E 15 761 100000
E 16 762 100000
E 17 762 100000
E 18 762 100000
E 19 763 100000
E 20 763 100000
E 21 763 100000
E 22 764 100000
E 23 764 100000
E 24 764 100000
E 25 765 100000
E 26 765 100000
E 27 765 100000
E 28 766 100000
E 29 766 100000
E 30 766 100000
E 31 767 100000
E 32 767 100000
E 33 767 100000
E 34 768 100000
E 35 768 100000
E 36 768 100000
E 37 769 100000
E 38 769 100000
E 39 770 100000
E 40 771 100000
E 41 772 100000
E 42 773 100000
E 43 774 100000
E 44 774 100000
E 45 774 100000
E 46 775 100000
E 47 775 100000
E 48 775 100000
E 49 776 100000
E 50 776 100000
E 51 776 100000
E 52 777 100000
E 53 777 100000
E 54 777 100000
E 55 778 100000
E 56 778 100000
E 57 778 100000
E 58 779 100000
E 59 779 100000
E 60 779 100000
E 61 780 100000
E 62 780 100000
E 63 780 100000
E 64 781 100000
E 65 781 100000
E 66 781 100000
E 67 782 100000
E 68 782 100000
E 69 783 100000
E 70 783 100000
E 71 784 100000
E 72 784 100000
E 73 785 100000
E 74 785 100000
E 75 786 100000
E 76 786 100000
E 77 787 100000
E 78 787 100000
E 79 788 100000
E 80 789 100000
E 81 790 100000
E 82 791 100000
E 83 792 100000
E 84 792 100000
E 85 793 100000
E 86 793 100000
E 87 794 100000
E 88 794 100000
E 89 795 100000
E 90 795 100000
E 91 796 100000
E 92 796 100000
E 93 797 100000
E 94 797 100000
E 95 798 100000
E 96 798 100000
E 97 799 100000
E 98 799 100000
E 99 799 100000
E 100 800 100000
E 101 800 100000
E 102 800 100000
E 103 801 100000
E 104 801 100000
E 105 801 100000
E 106 802 100000
E 107 802 100000
E 108 802 100000
E 109 803 100000
E 110 803 100000
E 111 803 100000
E 112 804 100000
E 113 804 100000
E 114 804 100000
E 115 805 100000
E 116 805 100000
E 117 805 100000
E 118 806 100000
E 119 806 100000
E 120 806 100000
E 121 807 100000
E 122 807 100000
E 123 808 100000
E 124 809 100000
E 125 810 100000
E 126 811 100000
E 127 812 100000
E 128 812 100000
E 129 812 100000
E 130 813 100000
E 131 813 100000
E 132 813 100000
E 133 814 100000
E 134 814 100000
E 135 814 100000
E 136 815 100000
E 137 815 100000
E 138 815 100000
E 139 816 100000
E 140 816 100000
E 141 816 100000
E 142 816 100000
E 143 817 100000
E 144 817 100000
E 145 818 100000
E 146 818 100000
E 147 819 100000
E 148 819 100000
E 149 820 100000
E 150 820 100000
E 151 821 100000
E 152 821 100000
E 153 822 100000
E 154 822 100000
E 155 823 100000
E 156 823 100000
E 157 824 100000
E 158 824 100000
E 159 825 100000
E 160 825 100000
E 161 826 100000
E 162 826 100000
E 163 827 100000
E 164 827 100000
E 165 828 100000
E 166 828 100000
E 167 829 100000
E 168 829 100000
E 169 830 100000
E 170 830 100000
E 171 831 100000
E 172 831 100000
E 173 832 100000
E 174 832 100000
E 175 833 100000
END

SECTION Terminals
Terminals 79
T 755
T 756
T 757
T 758
T 759
T 760
T 761
T 762
T 763
T 764
T 765
T 766
T 767
T 768
T 769
T 770
T 771
T 772
T 773
T 774
T 775
T 776
T 777
T 778
T 779
T 780
T 781
T 782
T 783
T 784
T 785
T 786
T 787
T 788
T 789
T 790
T 791
T 792
T 793
T 794
T 795
T 796
T 797
T 798
T 799
T 800
T 801
T 802
T 803
T 804
T 805
T 806
T 807
T 808
T 809
T 810
T 811
T 812
T 813
T 814
T 815
T 816
T 817
T 818
T 819
T 820
T 821
T 822
T 823
T 824
T 825
T 826
T 827
T 828
T 829
T 830
T 831
T 832
T 833
END

EOF
